100
10 4
43 0
30 0
43 4
1 0
7 4
34 3
13 4
18 0
7 1
7 3
15 3
11 2
14 3
5 4
2 0
27 4
33 4
9 4
42 3
9 0
13 0
16 3
6 4
36 2
44 4
37 2
23 3
44 0
29 2
7 0
36 0
39 4
21 2
33 2
17 4
5 0
36 3
37 0
12 4
31 2
41 1
28 1
34 4
8 0
32 0
41 4
38 4
15 4
22 1
4 0
12 0
11 3
18 4
40 4
4 3
22 0
21 0
41 0
32 2
12 3
1 3
26 4
42 4
33 0
6 0
14 4
10 0
3 3
0 0
28 4
1 4
11 0
19 4
31 0
26 0
32 4
17 0
38 1
42 0
31 1
18 1
19 0
34 1
38 2
0 1
34 0
36 4
19 2
21 4
2 4
14 0
23 4
38 0
18 3
38 3
24 2
23 0
29 4
27 0

